100
1000
261
259
256
256
250
249
244
237
235
233
230
228
225
224
223
222
219
218
215
213
209
206
205
204
200
197
195
188
188
186
183
180
180
176
176
172
165
164
161
161
154
148
146
143
139
138
137
135
134
134
128
126
126
122
121
120
117
114
112
109
108
107
106
104
99
99
97
97
92
91
90
88
87
86
84
83
83
82
78
74
71
66
64
61
57
54
51
47
45
44
42
33
32
28
27
26
26
19
16
16
